Linux optc-04-13 4.15.0-88-generic #88-Ubuntu SMP Tue Feb 11 20:11:34 UTC 2020 x86_64 x86_64 x86_64 GNU/Linux

top - 04:40:44 up 2 days, 15:16,  0 users,  load average: 0,44, 0,86, 0,95
Tasks: 466 gesamt,   1 laufend, 235 schlafend,   0 gestoppt,   0 Zombie
%CPU(s): 16,4 be,  3,9 sy,  0,0 ni, 79,7 un,  0,0 wa,  0,0 hi,  0,0 si,  0,0 st
KiB Spch : 65916192 gesamt, 61962040 frei,   723772 belegt,  3230380 Puff/Cache
KiB Swap:  8388604 gesamt,  8388604 frei,        0 belegt. 64615952 verfü Spch 

  PID USER      PR  NI    VIRT    RES    SHR S  %CPU %MEM     ZEIT+ BEFEHL
21663 bzfhende  20   0   52808   4372   3448 R   7,7  0,0   0:00.04 top
    1 root      20   0  233680   9188   6604 S   0,0  0,0   0:16.66 systemd
    2 root      20   0       0      0      0 S   0,0  0,0   0:00.24 kthreadd
    4 root       0 -20       0      0      0 I   0,0  0,0   0:00.00 kworker/0:+
    5 root      20   0       0      0      0 I   0,0  0,0   0:00.02 kworker/u9+
    7 root       0 -20       0      0      0 I   0,0  0,0   0:00.00 mm_percpu_+
    8 root      20   0       0      0      0 S   0,0  0,0   0:00.22 ksoftirqd/0
    9 root      20   0       0      0      0 I   0,0  0,0   0:44.89 rcu_sched

hard time limit: 00-04:10:00
hard mem limit: 38600

SLURM jobID: 6405075

@01 /nfs/OPTI/bzfhende/instances//./miplib2010_opm2/instances/opm2-z12-s6.mps.gz ===========
-----------------------------
So 8. Mär 04:40:44 CET 2020
-----------------------------
@03 1583638844
@05 7200
SCIP version 7.0.0 [precision: 8 byte] [memory: block] [mode: optimized] [LP solver: CPLEX 12.10.0.0] [GitHash: 297532de76]
Copyright (C) 2002-2020 Konrad-Zuse-Zentrum fuer Informationstechnik Berlin (ZIB)

External codes: 
  Readline 7.0         GNU library for command line editing (gnu.org/s/readline)
  CPLEX 12.10.0.0      Linear Programming Solver developed by IBM (www.cplex.com)
  CppAD 20180000.0     Algorithmic Differentiation of C++ algorithms developed by B. Bell (www.coin-or.org/CppAD)
  ZLIB 1.2.11          General purpose compression library by J. Gailly and M. Adler (zlib.net)
  GMP 6.1.2            GNU Multiple Precision Arithmetic Library developed by T. Granlund (gmplib.org)
  bliss 0.73p          Computing Graph Automorphism Groups by T. Junttila and P. Kaski (http://www.tcs.hut.fi/Software/bliss/)

user parameter file <scip.set> not found - using default parameters

SCIP> 
SCIP> set load /nfs/OPTI/bzfhende/scip-opti/check/../settings/periodic_report.sett
loaded parameter file </nfs/OPTI/bzfhende/scip-opti/check/../settings/periodic_report.set>
SCIP> set limits time 7200
limits/time = 7200
SCIP> set limits nodes 2100000000
limits/nodes = 2100000000
SCIP> set limits memory 35000
limits/memory = 35000
SCIP> set lp advanced threads 1
lp/threads = 1
SCIP> set timing clocktype 1
timing/clocktype = 1
SCIP> set display freq 10000
display/freq = 10000
SCIP> set memory savefac 1.0
memory/savefac = 1
SCIP> set save /nfs/OPTI/bzfhende/scip-opti/check/treesize.prediction.opm2/bzfhennde.instancegroups_opm2.56_opm2-z12-s6.scip.M620v2.periodic_report.set
saved parameter file </nfs/OPTI/bzfhende/scip-opti/check/treesize.prediction.opm2/bzfhende.instancegroups_opm2.56_opm2-z12-s6.scip.M620v2.periodic_report.set>
SCIP> read /nfs/OPTI/bzfhende/instances//./miplib2010_opm2/instances/opm2-z12-s6..mps.gz

read problem </nfs/OPTI/bzfhende/instances//./miplib2010_opm2/instances/opm2-z12-s6.mps.gz>
============

original problem has 10800 variables (10800 bin, 0 int, 0 impl, 0 cont) and 319508 constraints
SCIP> display parameters

number of parameters = 2603
non-default parameter settings:
display/freq = 10000
limits/time = 7200
limits/nodes = 2100000000
limits/memory = 35000
lp/threads = 1
memory/savefac = 1
timing/clocktype = 1
estimation/restarts/restartpolicy = n
estimation/restarts/restartlimit = 0
estimation/reportfreq = 100
estimation/treeprofile/enabled = TRUE

SCIP> optimize

feasible solution found by trivial heuristic after 0.4 seconds, objective value 0.000000e+00
presolving:
(round 1, fast)       407 del vars, 19559 del conss, 0 add conss, 0 chg bounds, 0 chg sides, 0 chg coeffs, 0 upgd conss, 0 impls, 299909 clqs
(round 2, fast)       416 del vars, 20192 del conss, 0 add conss, 0 chg bounds, 0 chg sides, 0 chg coeffs, 0 upgd conss, 0 impls, 299292 clqs
(round 3, exhaustive) 416 del vars, 20208 del conss, 0 add conss, 0 chg bounds, 0 chg sides, 0 chg coeffs, 299300 upgd conss, 0 impls, 299292 clqs
(round 4, fast)       450 del vars, 21062 del conss, 0 add conss, 0 chg bounds, 0 chg sides, 0 chg coeffs, 299300 upgd conss, 0 impls, 297582 clqs
(round 5, fast)       451 del vars, 21967 del conss, 0 add conss, 0 chg bounds, 0 chg sides, 0 chg coeffs, 299300 upgd conss, 0 impls, 297533 clqs
(round 6, medium)     456 del vars, 22212 del conss, 0 add conss, 0 chg bounds, 0 chg sides, 0 chg coeffs, 299300 upgd conss, 0 impls, 297288 clqs
   (56.4s) probing: 1000/10344 (9.7%) - 0 fixings, 0 aggregations, 343109 implications, 0 bound changes
   (56.5s) probing: 1001/10344 (9.7%) - 0 fixings, 0 aggregations, 343465 implications, 0 bound changes
   (56.5s) probing aborted: 1000/1000 successive useless probings
   (62.2s) symmetry computation started: requiring (bin +, int +, cont +), (fixed: bin -, int -, cont -)
   (62.7s) no symmetry present
presolving (7 rounds: 7 fast, 3 medium, 2 exhaustive):
 456 deleted vars, 22212 deleted constraints, 0 added constraints, 0 tightened bounds, 0 added holes, 0 changed sides, 0 changed coefficients
 0 implications, 640753 cliques
presolved problem has 10344 variables (10344 bin, 0 int, 0 impl, 0 cont) and 297296 constraints
      8 constraints of type <knapsack>
 297288 constraints of type <setppc>
transformed objective value is always integral (scale: 1)
Presolving Time: 62.41
transformed 1/1 original solutions to the transformed problem space

 time | node  | left  |LP iter|LP it/n|mem/heur|mdpt |vars |cons |rows |cuts |sepa|confs|strbr|  dualbound   | primalbound  |  gap   | compl. 
p65.1s|     1 |     0 |     0 |     - | vbounds|   0 |  10k| 297k| 297k|   0 |  0 |   7 |   0 |-9.356000e+05 |-3.458300e+04 |2605.38%| unknown
  146s|     1 |     0 | 58320 |     - |  2439M |   0 |  10k| 297k| 297k|   0 |  0 |  12 |   0 |-8.492153e+04 |-3.458300e+04 | 145.56%| unknown
r 148s|     1 |     0 | 58320 |     - |shifting|   0 |  10k| 297k| 297k|   0 |  0 |  12 |   0 |-8.492153e+04 |-3.636300e+04 | 133.54%| unknown
i 148s|     1 |     0 | 58320 |     - |  oneopt|   0 |  10k| 297k| 297k|   0 |  0 |  12 |   0 |-8.492153e+04 |-3.757000e+04 | 126.04%| unknown
d1788s|     1 |     0 |143278 |     - |farkasdi|   0 |  10k| 297k| 297k|   0 |  2 |  12 |   0 |-8.492153e+04 |-5.363200e+04 |  58.34%| unknown
d3300s|     1 |     0 |200651 |     - |conflict|   0 |  10k| 297k| 297k|   0 |  2 |  12 |   0 |-8.492153e+04 |-5.453700e+04 |  55.71%| unknown
 3319s|     1 |     0 |200651 |     - |  2543M |   0 |  10k| 297k| 297k|   0 |  2 |  12 |   0 |-8.492153e+04 |-5.453700e+04 |  55.71%| unknown
 3670s|     1 |     2 |200651 |     - |  2547M |   0 |  10k| 297k| 297k|   0 |  4 |  12 |  21 |-8.393804e+04 |-5.453700e+04 |  53.91%| unknown
d5171s|     4 |     5 |230156 |57278.7 |pscostdi|   2 |  10k| 297k| 297k|   0 |  1 |  12 | 108 |-8.021473e+04 |-5.982500e+04 |  34.08%| unknown

SCIP Status        : solving was interrupted [time limit reached]
Solving Time (sec) : 7199.85
Solving Nodes      : 25
Primal Bound       : -5.98250000000000e+04 (7 solutions)
Dual Bound         : -8.02147282456534e+04
Gap                : 34.08 %

SCIP> display statistics

SCIP Status        : solving was interrupted [time limit reached]
Total Time         :    7200.83
  solving          :    7199.85
  presolving       :      62.41 (included in solving)
  reading          :       0.98
  copying          :       0.39 (1 #copies) (minimal 0.39, maximal 0.39, average 0.39)
Original Problem   :
  Problem name     : opm2-z12-s6
  Variables        : 10800 (10800 binary, 0 integer, 0 implicit integer, 0 continuous)
  Constraints      : 319508 initial, 319508 maximal
  Objective        : minimize, 10730 non-zeros (abs.min = 1, abs.max = 570)
Presolved Problem  :
  Problem name     : t_opm2-z12-s6
  Variables        : 10344 (10344 binary, 0 integer, 0 implicit integer, 0 continuous)
  Constraints      : 297296 initial, 297326 maximal
  Objective        : minimize, 10277 non-zeros (abs.min = 1, abs.max = 570)
  Nonzeros         : 677305 constraint, 1281522 clique table
Presolvers         :   ExecTime  SetupTime  Calls  FixedVars   AggrVars   ChgTypes  ChgBounds   AddHoles    DelCons    AddCons   ChgSides   ChgCoefs
  boundshift       :       0.00       0.00      0          0          0          0          0          0          0          0          0          0
  convertinttobin  :       0.00       0.00      0          0          0          0          0          0          0          0          0          0
  domcol           :       0.17       0.00      1          0          0          0          0          0          0          0          0          0
  dualagg          :       0.00       0.00      0          0          0          0          0          0          0          0          0          0
  dualcomp         :       0.00       0.00      0          0          0          0          0          0          0          0          0          0
  dualinfer        :       0.00       0.00      0          0          0          0          0          0          0          0          0          0
  dualsparsify     :       5.78       0.00      1          0          0          0          0          0          0          0          0          0
  gateextraction   :       0.00       0.00      0          0          0          0          0          0          0          0          0          0
  implics          :       0.00       0.00      3          0          0          0          0          0          0          0          0          0
  inttobinary      :       0.00       0.00      0          0          0          0          0          0          0          0          0          0
  qpkktref         :       0.00       0.00      0          0          0          0          0          0          0          0          0          0
  redvub           :       0.00       0.00      0          0          0          0          0          0          0          0          0          0
  sparsify         :       0.22       0.00      1          0          0          0          0          0          0          0          0          0
  stuffing         :       0.00       0.00      0          0          0          0          0          0          0          0          0          0
  trivial          :       0.00       0.00      7          0          0          0          0          0          0          0          0          0
  tworowbnd        :       0.20       0.00      1          0          0          0          0          0          0          0          0          0
  dualfix          :       0.00       0.00      7        410          0          0          0          0          0          0          0          0
  genvbounds       :       0.00       0.00      0          0          0          0          0          0          0          0          0          0
  probing          :      49.56       0.00      1          0          0          0          0          0          0          0          0          0
  pseudoobj        :       0.00       0.00      4          0          0          0          0          0          0          0          0          0
  symmetry         :       0.41       0.00      1          0          0          0          0          0          0          0          0          0
  vbounds          :       0.04       0.00      1          0          0          0          0          0          0          0          0          0
  knapsack         :       1.90       0.00      7          0          0          0          0          0          0          0          0          0
  setppc           :       1.28       0.02      7         38          0          0          0          0       2004          0          0          0
  linear           :       2.53       0.09      4          0          8          0          0          0      20208          0          0          0
  logicor          :       0.00       0.00      0          0          0          0          0          0          0          0          0          0
  benders          :       0.00       0.00      0          0          0          0          0          0          0          0          0          0
  components       :       0.09       0.00      1          0          0          0          0          0          0          0          0          0
  root node        :          -          -      -          0          -          -          0          -          -          -          -          -
Constraints        :     Number  MaxNumber  #Separate #Propagate    #EnfoLP    #EnfoRelax  #EnfoPS    #Check   #ResProp    Cutoffs    DomReds       Cuts    Applied      Conss   Children
  benderslp        :          0          0          0          0         23          0          0         16          0          0          0          0          0          0          0
  integral         :          0          0          0          0         23          0          0         16          0          0        415          0          0         22         40
  knapsack         :          8          8          2      32990          0          0          0         11          4         15          0          0          0          0          0
  setppc           :     297288+    297296          2      32946          0          0          0          7      29004          5       4116          0          0          0          0
  linear           :          0+         3          0         86          0          0          0          0          0          0          0          0          0          0          0
  logicor          :          0+        19          2        119          0          0          0          0          1          0          0          0          0          0          0
  benders          :          0          0          0          0          0          0          0          9          0          0          0          0          0          0          0
  countsols        :          0          0          0          0          0          0          0          9          0          0          0          0          0          0          0
  components       :          0          0          0          0          0          0          0          0          0          0          0          0          0          0          0
Constraint Timings :  TotalTime  SetupTime   Separate  Propagate     EnfoLP     EnfoPS     EnfoRelax   Check    ResProp    SB-Prop
  benderslp        :       0.00       0.00       0.00       0.00       0.00       0.00       0.00       0.00       0.00       0.00
  integral         :    2312.22       0.00       0.00       0.00    2312.22       0.00       0.00       0.00       0.00       0.00
  knapsack         :      17.19       0.00      14.29       2.72       0.00       0.00       0.00       0.01       0.01       0.16
  setppc           :      14.35       0.02       0.16      12.55       0.00       0.00       0.00       0.06       0.00       1.56
  linear           :       0.09       0.09       0.00       0.00       0.00       0.00       0.00       0.00       0.00       0.00
  logicor          :       0.01       0.00       0.00       0.01       0.00       0.00       0.00       0.00       0.00       0.00
  benders          :       0.00       0.00       0.00       0.00       0.00       0.00       0.00       0.00       0.00       0.00
  countsols        :       0.00       0.00       0.00       0.00       0.00       0.00       0.00       0.00       0.00       0.00
  components       :       0.00       0.00       0.00       0.00       0.00       0.00       0.00       0.00       0.00       0.00
Propagators        : #Propagate   #ResProp    Cutoffs    DomReds
  dualfix          :          3          0          0          0
  genvbounds       :          0          0          0          0
  nlobbt           :          0          0          0          0
  obbt             :          0          0          0          0
  probing          :          0          0          0          0
  pseudoobj        :        198          0          0          0
  redcost          :         26          0          0          0
  rootredcost      :          2          0          0          0
  symmetry         :          0          0          0          0
  vbounds          :      25116          0          0          0
Propagator Timings :  TotalTime  SetupTime   Presolve  Propagate    ResProp    SB-Prop
  dualfix          :       0.00       0.00       0.00       0.00       0.00       0.00
  genvbounds       :       0.00       0.00       0.00       0.00       0.00       0.00
  nlobbt           :       0.00       0.00       0.00       0.00       0.00       0.00
  obbt             :       0.00       0.00       0.00       0.00       0.00       0.00
  probing          :      49.56       0.00      49.56       0.00       0.00       0.00
  pseudoobj        :       0.23       0.00       0.00       0.23       0.00       0.00
  redcost          :       0.06       0.00       0.00       0.06       0.00       0.00
  rootredcost      :       0.02       0.00       0.00       0.02       0.00       0.00
  symmetry         :       0.44       0.00       0.41       0.01       0.00       0.02
  vbounds          :       0.11       0.00       0.04       0.06       0.00       0.01
Conflict Analysis  :       Time      Calls    Success    DomReds  Conflicts   Literals    Reconvs ReconvLits   Dualrays   Nonzeros   LP Iters   (pool size: [10000,10000])
  propagation      :       0.17         17         17          -       1341     1323.9          0        0.0          -          -          -
  infeasible LP    :       0.00          0          0          -          0        0.0          0        0.0          0        0.0          0
  bound exceed. LP :       1.69          4          3          -         42      455.2          0        0.0          3      990.0         80
  strong branching :       0.00          0          0          -          0        0.0          0        0.0          -          -          0
  pseudo solution  :       0.00          0          0          -          0        0.0          0        0.0          -          -          -
  applied globally :       0.00          -          -          0         31      335.3          -          -          3          -          -
  applied locally  :          -          -          -          0          0        0.0          -          -          0          -          -
Separators         :   ExecTime  SetupTime      Calls    Cutoffs    DomReds       Cuts    Applied      Conss
  cut pool         :       0.00                     0          -          -          0          -          -    (maximal pool size: 0)
  aggregation      :      44.25       0.00          3          0          0          0          0          0
  cgmip            :       0.00       0.00          0          0          0          0          0          0
  clique           :      12.07       0.00          2          0          0          0          0          0
  closecuts        :       0.00       0.00          0          0          0          0          0          0
  cmir             :       0.00       0.00          0          0          0          0          0          0
  convexproj       :       0.00       0.00          0          0          0          0          0          0
  disjunctive      :       0.00       0.00          0          0          0          0          0          0
  eccuts           :       0.00       0.00          0          0          0          0          0          0
  flowcover        :       0.00       0.00          0          0          0          0          0          0
  gauge            :       0.00       0.00          0          0          0          0          0          0
  gomory           :     226.03       0.00          3          0          0          0          0          0
  impliedbounds    :       0.06       0.00          3          0          0          0          0          0
  intobj           :       0.00       0.00          0          0          0          0          0          0
  mcf              :       0.47       0.00          1          0          0          0          0          0
  oddcycle         :       0.00       0.00          0          0          0          0          0          0
  rapidlearning    :       0.02       0.00          0          0          0          0          0          0
  strongcg         :      66.55       0.00          2          0          0          0          0          0
  zerohalf         :      58.48       0.00          3          0          0          0          0          0
Pricers            :   ExecTime  SetupTime      Calls       Vars
  problem variables:       0.00          -          0          0
Branching Rules    :   ExecTime  SetupTime   BranchLP  BranchExt   BranchPS    Cutoffs    DomReds       Cuts      Conss   Children
  allfullstrong    :       0.00       0.00          0          0          0          0          0          0          0          0
  cloud            :       0.00       0.00          0          0          0          0          0          0          0          0
  distribution     :       0.00       0.00          0          0          0          0          0          0          0          0
  fullstrong       :       0.00       0.00          0          0          0          0          0          0          0          0
  inference        :       0.00       0.00          0          0          0          0          0          0          0          0
  leastinf         :       0.00       0.00          0          0          0          0          0          0          0          0
  lookahead        :       0.00       0.00          0          0          0          0          0          0          0          0
  mostinf          :       0.00       0.00          0          0          0          0          0          0          0          0
  multaggr         :       0.00       0.00          0          0          0          0          0          0          0          0
  nodereopt        :       0.00       0.00          0          0          0          0          0          0          0          0
  pscost           :       0.00       0.00          0          0          0          0          0          0          0          0
  random           :       0.00       0.00          0          0          0          0          0          0          0          0
  relpscost        :    2312.22       0.00         23          0          0          0        415          0         22         40
  vanillafullstrong:       0.00       0.00          0          0          0          0          0          0          0          0
Primal Heuristics  :   ExecTime  SetupTime      Calls      Found       Best
  LP solutions     :       0.00          -          -          0          0
  relax solutions  :       0.00          -          -          0          0
  pseudo solutions :       0.00          -          -          0          0
  strong branching :       0.02          -          -          0          0
  actconsdiving    :       0.00       0.00          0          0          0
  adaptivediving   :       0.00       0.00          0          0          0
  alns             :       1.08       0.00          1          0          0
  bound            :       0.00       0.00          0          0          0
  clique           :       0.46       0.00          1          0          0
  coefdiving       :       0.00       0.00          0          0          0
  completesol      :       0.00       0.00          0          0          0
  conflictdiving   :     419.32       0.00          1          1          1
  crossover        :       0.00       0.00          0          0          0
  dins             :       0.00       0.00          0          0          0
  distributiondivin:       0.00       0.00          0          0          0
  dualval          :       0.00       0.00          0          0          0
  farkasdiving     :    1512.09       0.00          1          1          1
  feaspump         :    1111.04       0.00          1          0          0
  fixandinfer      :       0.00       0.00          0          0          0
  fracdiving       :       0.00       0.00          0          0          0
  gins             :       0.00       0.00          0          0          0
  guideddiving     :       0.00       0.00          0          0          0
  indicator        :       0.00       0.00          0          0          0
  intdiving        :       0.00       0.00          0          0          0
  intshifting      :       0.00       0.00          0          0          0
  linesearchdiving :       0.00       0.00          0          0          0
  localbranching   :       0.00       0.00          0          0          0
  locks            :       0.56       0.00          1          0          0
  lpface           :       0.00       0.00          0          0          0
  mpec             :       0.00       0.00          0          0          0
  multistart       :       0.00       0.00          0          0          0
  mutation         :       0.00       0.00          0          0          0
  nlpdiving        :       0.00       0.00          0          0          0
  objpscostdiving  :       0.00       0.00          0          0          0
  octane           :       0.00       0.00          0          0          0
  ofins            :       0.00       0.00          0          0          0
  oneopt           :       0.12       0.00          4          1          1
  padm             :       0.00       0.00          0          0          0
  proximity        :       0.00       0.00          0          0          0
  pscostdiving     :     375.63       0.00          1          1          1
  randrounding     :       0.54       0.00          2          0          0
  rens             :       0.00       0.00          0          0          0
  reoptsols        :       0.00       0.00          0          0          0
  repair           :       0.00       0.00          0          0          0
  rins             :       0.00       0.00          0          0          0
  rootsoldiving    :       0.00       0.00          0          0          0
  rounding         :      20.65       0.00         24          0          0
  shiftandpropagate:       0.00       0.00          0          0          0
  shifting         :       3.67       0.00          3          1          1
  simplerounding   :       0.00       0.00         24          0          0
  subnlp           :       0.00       0.00          0          0          0
  trivial          :       0.03       0.00          2          1          1
  trivialnegation  :       0.00       0.00          0          0          0
  trustregion      :       0.00       0.00          0          0          0
  trysol           :       0.00       0.00          0          0          0
  twoopt           :       0.00       0.00          0          0          0
  undercover       :       0.00       0.00          0          0          0
  vbounds          :       2.88       0.00          1          1          1
  veclendiving     :       0.00       0.00          0          0          0
  zeroobj          :       0.00       0.00          0          0          0
  zirounding       :       0.81       0.00         20          0          0
  other solutions  :          -          -          -          0          -
Diving (single)    :      Calls      Nodes   LP Iters Backtracks  Conflicts   MinDepth   MaxDepth   AvgDepth  RoundSols  NLeafSols  MinSolDpt  MaxSolDpt  AvgSolDpt
  actconsdiving    :          0          -          -          -          -          -          -          -          -          -          -          -          -
  coefdiving       :          0          -          -          -          -          -          -          -          -          -          -          -          -
  conflictdiving   :          1        411      23853          0          0        412        412      412.0          0          1        412        412      412.0
  distributiondivin:          0          -          -          -          -          -          -          -          -          -          -          -          -
  farkasdiving     :          1        734      84958          0          0        735        735      735.0          0          1        735        735      735.0
  fracdiving       :          0          -          -          -          -          -          -          -          -          -          -          -          -
  guideddiving     :          0          -          -          -          -          -          -          -          -          -          -          -          -
  linesearchdiving :          0          -          -          -          -          -          -          -          -          -          -          -          -
  pscostdiving     :          1        514      24646          0          0        517        517      517.0          0          1        517        517      517.0
  veclendiving     :          0          -          -          -          -          -          -          -          -          -          -          -          -
Diving (adaptive)  :      Calls      Nodes   LP Iters Backtracks  Conflicts   MinDepth   MaxDepth   AvgDepth  RoundSols  NLeafSols  MinSolDpt  MaxSolDpt  AvgSolDpt
  actconsdiving    :          0          -          -          -          -          -          -          -          -          -          -          -          -
  coefdiving       :          0          -          -          -          -          -          -          -          -          -          -          -          -
  conflictdiving   :          0          -          -          -          -          -          -          -          -          -          -          -          -
  distributiondivin:          0          -          -          -          -          -          -          -          -          -          -          -          -
  farkasdiving     :          0          -          -          -          -          -          -          -          -          -          -          -          -
  fracdiving       :          0          -          -          -          -          -          -          -          -          -          -          -          -
  guideddiving     :          0          -          -          -          -          -          -          -          -          -          -          -          -
  linesearchdiving :          0          -          -          -          -          -          -          -          -          -          -          -          -
  pscostdiving     :          0          -          -          -          -          -          -          -          -          -          -          -          -
  veclendiving     :          0          -          -          -          -          -          -          -          -          -          -          -          -
Neighborhoods      :      Calls  SetupTime  SolveTime SolveNodes       Sols       Best       Exp3  EpsGreedy        UCB TgtFixRate  Opt  Inf Node Stal  Sol  Usr Othr Actv
  rens             :          0       0.00       0.00          0          0          0    0.00000   -1.00000    1.00000      0.900    0    0    0    0    0    0    0    1
  rins             :          0       0.00       0.00          0          0          0    0.00000   -1.00000    1.00000      0.900    0    0    0    0    0    0    0    1
  mutation         :          1       0.59       0.41          0          0          0    0.00000   -1.00000    1.00000      0.700    0    1    0    0    0    0    0    1
  localbranching   :          0       0.00       0.00          0          0          0    0.00000   -1.00000    1.00000      0.900    0    0    0    0    0    0    0    1
  crossover        :          0       0.00       0.00          0          0          0    0.00000   -1.00000    1.00000      0.900    0    0    0    0    0    0    0    1
  proximity        :          0       0.00       0.00          0          0          0    0.00000   -1.00000    1.00000      0.900    0    0    0    0    0    0    0    1
  zeroobjective    :          0       0.00       0.00          0          0          0    0.00000   -1.00000    1.00000      0.900    0    0    0    0    0    0    0    1
  dins             :          0       0.00       0.00          0          0          0    0.00000   -1.00000    1.00000      0.900    0    0    0    0    0    0    0    1
  trustregion      :          0       0.00       0.00          0          0          0    0.00000   -1.00000    1.00000      0.900    0    0    0    0    0    0    0    0
LP                 :       Time      Calls Iterations  Iter/call   Iter/sec  Time-0-It Calls-0-It    ItLimit
  primal LP        :       0.00          0          0       0.00          -       0.00          0
  dual LP          :     952.79         29      85096    3151.70      89.31      85.10          2
  lex dual LP      :       0.00          0          0       0.00          -
  barrier LP       :       0.00          0          0       0.00          -       0.00          0
  resolve instable :       0.00          0          0       0.00          -
  diving/probing LP:    3400.98       1043     166977     160.09      49.10
  strong branching :    2302.72        196     160474     818.74      69.69          -          -        267
    (at root node) :          -         21      17419     829.48          -
  conflict analysis:       1.55          8         80      10.00      51.61
B&B Tree           :
  number of runs   :          1
  nodes            :         25 (20 internal, 5 leaves)
  feasible leaves  :          0
  infeas. leaves   :          0
  objective leaves :          4
  nodes (total)    :         25 (20 internal, 5 leaves)
  nodes left       :         17
  max depth        :         18
  max depth (total):         18
  backtracks       :          2 (8.0%)
  early backtracks :          0 (0.0%)
  nodes exc. ref.  :          0 (0.0%)
  delayed cutoffs  :          0
  repropagations   :          0 (0 domain reductions, 0 cutoffs)
  avg switch length:       1.32
  switching time   :       0.02
Estim. Tree Size   :        425
Estimation Tree    : 41 nodes (24 visited, 20 inner, 4 leaves, 17 open), weight: 0.0084 completed 0.0599
Estimations        :      estim      value      trend resolution     smooth
  wbe              :        948          -          -          -          -
  tree-profile     :         -1          -          -          -          -
  gap              :          8    0.74581    0.44621          1          7
  tree-weight      :        426    0.00843    0.00474          1        404
  leaf-frequency   :         11    0.14583    0.17367          1         10
  ssg              :         25    0.91029   -0.09976          1         24
  open-nodes       :         48   17.00000    6.03385          1         44
Root Node          :
  First LP value   : -8.49215258677506e+04
  First LP Iters   :      58320 (741.14 Iter/sec)
  First LP Time    :      78.69
  Final Dual Bound : -8.39380356877548e+04
  Final Root Iters :      58320
  Root LP Estimate : -5.58110796839629e+04
Solution           :
  Solutions found  :          7 (7 improvements)
  First Solution   : +0.00000000000000e+00   (in run 1, after 0 nodes, 0.36 seconds, depth 0, found by <trivial>)
  Gap First Sol.   :   infinite
  Gap Last Sol.    :      34.08 %
  Primal Bound     : -5.98250000000000e+04   (in run 1, after 4 nodes, 5170.81 seconds, depth 517, found by <pscostdiving>)
  Dual Bound       : -8.02147282456534e+04
  Gap              :      34.08 %
Integrals          :      Total       Avg%
  primal-dual      :  275763.39      38.30
  primal-ref       :          -          - (not evaluated)
  dual-ref         :          -          - (not evaluated)

SCIP> checksol

check best solution
solution is feasible in original problem
Violation          :    absolute    relative
  bounds           : 0.00000e+00 0.00000e+00
  integrality      : 0.00000e+00           -
  LP rows          : 0.00000e+00 0.00000e+00
  constraints      : 0.00000e+00 0.00000e+00

SCIP> write sol /local/tmp/bzfhende-tmpdir/bzfhende.instancegroups_opm2.56_opm2-zz12-s6.scip.M620v2.periodic_report.sol

written solution information to file </local/tmp/bzfhende-tmpdir/bzfhende.instancegroups_opm2.56_opm2-z12-s6.scip.M620v2.periodic_report.sol>

SCIP> quit

Read MPS: 1
MIP has 10800 vars and 319508 constraints
Read SOL: 1
Objective value computed by solver: -59825

Integrality tolerance: 1/10000
Linear tolerance: 1/10000
Objective tolerance: 1/10000

Check SOL: Integrality 1 Constraints 1 Objective 1
Maximum violations: Integrality 0 Constraints 0 Objective 0
@04 1583646069
-----------------------------
So 8. Mär 06:41:09 CET 2020
-----------------------------

=ready=
